c This format is no longer supported.
p cnf 20 4
c minmax.ite is the BDD counterpart to this file.
c #1 [ 1 6 11 16 ] 3
c #1 [ 2 7 12 17 ] 2
c #1 [ 3 8 13 18 ] 1
c #2 [ 4 9 14 19 ] 4
c #0 [ 5 10 15 20 ] 1
-1 -2 -3 -4 -5 0
-6 -7 -8 -9 -10 0
-11 -12 -13 -14 -15 0
-16 -17 -18 -19 -20 0
